0 52 
1 51 
2 49 
3 48 
4 48 
5 46 
6 47 
7 47 
8 46 
9 45 
10 44 
11 46 
12 46 
13 42 
14 41 
15 38 
16 39 
17 37 
18 35 
19 33 
20 33 
21 32 
22 31 
23 31 
24 30 
25 28 
26 27 
27 27 
28 26 
29 26 
30 25 
31 23 
32 23 
33 21 
34 20 
35 20 
36 19 
37 18 
38 19 
39 19 
40 18 
41 17 
42 15 
43 12 
44 13 
45 12 
46 12 
47 11 
48 10 
49 9 
50 8 
51 7 
52 8 
53 8 
54 7 
55 4 
56 3 
57 3 
58 2 
59 2 
60 1 
61 0 
62 0 

